&BANDS
  prefix       = "MoSe2",
  outdir       = "./out",
  filband ="Bands.dat"
/

