 &CONTROL
    calculation='relax',
    restart_mode='from_scratch',
    disk_io='low',
    prefix='MoSe2',
    pseudo_dir='../../pseudopotentials',
    forc_conv_thr=1.D-3,
    outdir='./out',
    verbosity='high',
 /
 
 &SYSTEM
    ibrav=4,
    A = 3.192,
    C = 30.0,
    nat = 6,
    ntyp = 3,
    noncolin=.FALSE.,
    lspinorb=.FALSE.,
    ecutwfc=60,
    ecutrho=480,
    occupations =smearing
    smearing =mv
    degauss =1.D-3
    input_dft='vdW-DF2-C09',
    assume_isolated = '2D'
 / 
 
 &ELECTRONS
    conv_thr=1.D-7,
    mixing_mode='local-TF'
    diagonalization='david',
 /

 &IONS
     ion_dynamics='bfgs'
 / 


 ATOMIC_SPECIES 
    Mo  95.95  Mo_ONCV_PBE-1.0.oncvpsp.upf
    W  183.84  W_pbe_v1.2.uspp.F.UPF
    S  32.065  s_pbe_v1.4.uspp.F.UPF
 

 ATOMIC_POSITIONS {crystal} 
Mo 0.0 0.0 0.110637825 
S 0.333333333 0.666666666 0.058454225 
S 0.333333333 0.666666666 0.162800832 
W 0.0 0.0 -0.113971889 
S 0.333333333 0.666666666 -0.061534448 
S 0.333333333 0.666666666 -0.166386543 
 

 K_POINTS {automatic}
12 12 1 0 0 0 
 8 8 1 0 0 0
 

