 &CONTROL
    calculation='scf',
    restart_mode='from_scratch',
    disk_io='low',
    prefix='MoSe2',
    pseudo_dir='../../pseudopotentials',
    forc_conv_thr=3.D-3,
    outdir='./out',
    verbosity='high',
 /
 
 &SYSTEM
    ibrav=4,
    A = 3.192,
    C = 30.0,
    nat = 6,
    ntyp = 3,
    noncolin=.TRUE.,
    lspinorb=.TRUE.,
    ecutwfc=55,
    ecutrho=400,
    occupations =smearing
    smearing =mv
    degauss =1.D-4
    !input_dft='vdW-DF2-C09',
    assume_isolated = '2D'
 / 
 
 &ELECTRONS
    conv_thr=1.D-7,
    mixing_mode='local-TF'
    diagonalization='david',
 /

 &IONS
     ion_dynamics='bfgs'
 / 


 ATOMIC_SPECIES 
    Mo  95.95  Mo.rel-pz-spn-kjpaw_psl.1.0.0.UPF
    W  183.84  W.rel-pz-spn-kjpaw_psl.1.0.0.UPF
    S  32.065  S.rel-pz-n-kjpaw_psl.0.1.UPF
 

 ATOMIC_POSITIONS {crystal} 
Mo 0.0 0.0 0.110637825 
S 0.333333333 0.666666666 0.058454225 
S 0.333333333 0.666666666 0.162800832 
W 0.0 0.0 -0.113971889 
S 0.333333333 0.666666666 -0.061534448 
S 0.333333333 0.666666666 -0.166386543 
 

 K_POINTS {automatic}
12 12 1 0 0 0 
 
 16 16 1 0 0 0
 

